20 5
 0 71  1 13  2 61  3 21  4 91 
 0 27  1 11  2 25  3  8  4 13 
 0 55  1 73  2 52  3  5  4  7 
 0 90  1 43  2 72  3  8  4 95 
 0 11  1 27  2 89  3 58  4 20 
 0 18  1 33  2 75  3 59  4 69 
 0 42  1 57  2 60  3 85  4 45 
 0 64  1 42  2 28  3 35  4 44 
 0 73  1 71  2 94  3 84  4 29 
 0 95  1  3  2 95  3 97  4 32 
 0 22  1 11  2 18  3 93  4 94 
 0 53  1 49  2 73  3 60  4 84 
 0 32  1  8  2 40  3 99  4 60 
 0  5  1  3  2 61  3 29  4 49 
 0 94  1 47  2 68  3 94  4 49 
 0 12  1 58  2 75  3 41  4 65 
 0 41  1 23  2 37  3 51  4 85 
 0 85  1 79  2 13  3 87  4 52 
 0 75  1 99  2 65  3 97  4  8 
 0 38  1 23  2  7  3 11  4 58 
